1 51140576
2 51140576
3 51140576
4 51140576
5 51140576
6 51140576
7 51140576
8 51140576
9 51140576
10 51140576
11 51140576
12 51140576
13 51140576
14 51140576
15 51140576
16 51140576
17 51140576
18 51140576
19 51140576
20 51140576
21 51140576
22 51140576
23 51140576
24 51140576
25 51140576
26 51140576
27 51140576
28 51140576
29 51140576
30 51140576
31 51140576
32 51140576
33 51140576
34 51140576
35 51140576
36 51140576
37 51140576
38 51140576
39 51140576
40 51140576
41 51140576
42 51140576
43 51140576
44 51140576
45 51140576
46 51140576
47 51140576
48 51140576
49 51140576
50 51140576
51 51140576
52 51140576
53 51140576
54 51140576
55 51140576
56 51140576
57 51140576
58 51140576
59 51140576
60 51140576
61 51140576
62 51140576
63 51140576
64 50866664
65 50866664
66 50866664
67 50866664
68 50866664
69 50866664
70 50866664
71 50866664
72 50866664
73 50866664
74 50866664
75 50866664
76 50866664
77 50866664
78 50866664
79 50866664
80 50866664
81 50866664
82 50866664
83 50866664
84 50866664
85 50355082
86 50355082
87 50355082
88 50355082
89 50355082
90 50355082
91 50355082
92 50355082
93 50355082
94 50355082
95 50355082
96 50355082
97 50355082
98 50355082
99 50355082
100 50355082
101 50355082
102 50355082
103 50355082
104 50355082
105 50355082
106 50355082
107 50355082
108 50355082
109 50355082
110 50355082
111 50355082
112 50355082
113 50355082
114 50355082
115 50355082
116 50355082
117 50355082
118 50355082
119 50355082
120 50355082
121 50355082
122 50355082
123 50355082
124 50355082
125 50355082
126 50355082
127 50355082
128 50355082
129 50355082
130 50355082
131 50355082
132 50355082
133 50355082
134 50355082
135 50355082
136 50355082
137 50355082
138 50355082
139 50355082
140 50355082
141 50355082
142 50355082
143 50355082
144 50355082
145 50355082
146 50355082
147 50355082
148 50355082
149 50355082
150 50355082
151 50355082
152 50355082
153 50355082
154 50355082
155 50355082
156 50355082
157 50355082
158 50355082
159 50355082
160 50355082
161 50355082
162 50355082
163 50355082
164 50355082
165 50355082
166 50355082
167 50355082
168 50355082
169 50355082
170 50355082
171 50355082
172 50355082
173 50355082
174 50355082
175 50355082
176 50355082
177 50355082
178 50355082
179 50355082
180 50355082
181 50355082
182 50355082
183 50355082
184 50355082
185 50355082
186 50355082
187 50355082
188 50355082
189 50355082
190 50355082
191 50355082
192 50355082
193 50355082
194 50355082
195 49895772
196 49895772
197 49895772
198 49895772
199 49895772
200 49895772
201 49895772
202 49895772
203 49895772
204 49895772
205 49895772
206 49895772
207 49895772
208 49895772
209 49895772
210 49895772
211 49895772
212 49895772
213 49895772
214 49895772
215 49895772
216 49895772
217 49895772
218 49895772
219 49895772
220 49895772
221 49895772
222 49895772
223 49895772
224 49895772
225 49895772
226 49895772
227 49895772
228 49895772
229 49895772
230 49895772
231 49895772
232 49895772
233 49895772
234 49895772
235 49895772
236 49895772
237 49895772
238 49895772
239 49895772
240 49895772
241 49895772
242 49895772
243 49895772
244 49895772
245 49895772
246 49895772
247 49895772
248 49895772
249 49895772
250 49895772
